\Problem name: p0282.p.lp

Minimize
 obj: 204 C1001 + 7 C1002 + 68 C1003 + 34 C1004 + 2355 C1009 + 79 C1010
 + 785 C1011 + 393 C1012 + 819 C1017 + 55 C1018 + 273 C1019 + 137 C1020
 + 9423 C1025 + 628 C1026 + 3141 C1027 + 1571 C1028 + 1023 C1033 + 68 C1034
 + 341 C1035 + 171 C1036 + 11781 C1041 + 785 C1042 + 3927 C1043 + 1963 C1044
 + 72 C1049 + 5 C1050 + 24 C1051 + 12 C1052 + 3585 C1057 + 239 C1058
 + 1195 C1059 + 598 C1060 + 294 C1065 + 20 C1066 + 98 C1067 + 49 C1068
 + 14340 C1073 + 956 C1074 + 4780 C1075 + 2390 C1076 + 1950 C1081 + 130 C1082
 + 650 C1083 + 325 C1084 + 520 C1085 + 489 C1086 + 33 C1087 + 163 C1088
 + 82 C1089 + 130 C1090 + 7806 C1091 + 520 C1092 + 2602 C1093 + 1301 C1094
 + 2082 C1095 + 1950 C1096 + 130 C1097 + 650 C1098 + 325 C1099 + 520 C1100
 + 9756 C1101 + 650 C1102 + 3252 C1103 + 1626 C1104 + 2439 C1105 + 163 C1106
 + 813 C1107 + 407 C1108 + 120 C1109 + 4 C1110 + 40 C1111 + 20 C1112
 + 2256 C1117 + 75 C1118 + 752 C1119 + 376 C1120 + 237 C1125 + 16 C1126
 + 79 C1127 + 39 C1128 + 4395 C1133 + 293 C1134 + 1465 C1135 + 733 C1136
 + 60 C1141 + 4 C1142 + 20 C1143 + 10 C1144 + 1068 C1145 + 71 C1146
 + 356 C1147 + 178 C1148 + 1158 C1153 + 39 C1154 + 386 C1155 + 193 C1156
 + 624 C1157 + 21 C1158 + 208 C1159 + 104 C1160 + 177 C1161 + 12 C1162
 + 59 C1163 + 29 C1164 + 3297 C1169 + 220 C1170 + 1099 C1171 + 549 C1172
 + 90 C1177 + 6 C1178 + 30 C1179 + 15 C1180 + 1605 C1181 + 107 C1182
 + 535 C1183 + 268 C1184 + 1068 C1189 + 71 C1190 + 356 C1191 + 178 C1192
 + 9147 C1197 + 610 C1198 + 3049 C1199 + 1524 C1200 + 951 C1205 + 63 C1206
 + 317 C1207 + 158 C1208 + 237 C1209 + 16 C1210 + 79 C1211 + 39 C1212
 + 1872 C1213 + 125 C1214 + 624 C1215 + 312 C1216 + 499 C1217 + 267 C1218
 + 18 C1219 + 89 C1220 + 44 C1221 + 71 C1222 + 10692 C1223 + 713 C1224
 + 3564 C1225 + 1782 C1226 + 2851 C1227 + 534 C1228 + 36 C1229 + 178 C1230
 + 89 C1231 + 142 C1232 + 160646 C1233 + 320 C1235 + 59108 C1237 + 2097 C1239
 + 4938 C1241 + 40146 C1243 + 912 C1245 + 66670 C1247 + 30 C1248 + 33330 C1249
 + 1670 C1250 + 30 C1251 + 30 C1252 + 66670 C1253 + 30 C1254 + 424 C1255
 + 4244 C1256 + 255 C1257 + 44244 C1258 + 13546 C1259 + 13546 C1260
 + 2270 C1261 + 75768 C1262 + 54500 C1263 + 6446 C1264 + 2122 C1265
 + 4530 C1266 + 40914 C1267 + 1091 C1268 + 4244 C1269 + 2122 C1270
 + 5305 C1271 + 809 C1272 + 5615 C1273 + 81177 C1274 + 10401 C1275
 + 1874 C1276 + 13167 C1277 + 140446 C1278 + 18925 C1279 + 863 C1280
 + 365 C1281 + 5114 C1282 + 80053 C1283 + 8569 C1284 + 7673 C1285 + 7673 C1286
 + 763 C1287 + 941 C1288 + 10 C1289
Subject To
 R1002: - 110 C1001 - 7 C1002 - 60 C1003 - 60 C1004 - 110 C1233 - 7 C1235
        - 60 C1237 + 4 C1255 - 18 C1256 - 10 C1257 - 30 C1258 - 40 C1259
        - 34 C1260 - 5 C1261 - 109 C1262 - 90 C1263 - 10 C1264 - 5 C1265
        - 20 C1266 - 23 C1267 - 7 C1268 - 5 C1269 - 11 C1270 - 10 C1271
        <= -242
 R1004: - 110 C1009 - 7 C1010 - 60 C1011 - 60 C1012 - 110 C1233 - 7 C1235
        - 60 C1237 + 4 C1255 - 18 C1256 - 10 C1257 - 30 C1258 - 40 C1259
        - 34 C1260 - 5 C1261 - 109 C1262 - 90 C1263 - 10 C1264 - 5 C1265
        - 20 C1266 - 23 C1267 - 7 C1268 - 5 C1269 - 11 C1270 - 10 C1271
        <= -262
 R1006: - 110 C1017 - 14 C1018 - 60 C1019 - 60 C1020 - 110 C1233 - 60 C1237
        - 14 C1239 + 4 C1255 - 18 C1256 - 30 C1258 - 40 C1259 - 34 C1260
        - 109 C1262 - 10 C1264 - 5 C1265 - 23 C1267 - 7 C1268 - 5 C1269
        - 11 C1270 - 10 C1271 - 10 C1272 - 5 C1273 - 150 C1274 - 28 C1275
        <= -179
 R1008: - 110 C1025 - 14 C1026 - 60 C1027 - 60 C1028 - 110 C1233 - 60 C1237
        - 14 C1239 + 4 C1255 - 18 C1256 - 30 C1258 - 40 C1259 - 34 C1260
        - 109 C1262 - 10 C1264 - 5 C1265 - 23 C1267 - 7 C1268 - 5 C1269
        - 11 C1270 - 10 C1271 - 10 C1272 - 5 C1273 - 150 C1274 - 28 C1275
        <= -199
 R1010: - 110 C1033 - 14 C1034 - 60 C1035 - 60 C1036 - 110 C1233 - 60 C1237
        - 14 C1241 + 4 C1255 - 18 C1256 - 30 C1258 - 40 C1259 - 34 C1260
        - 109 C1262 - 10 C1264 - 5 C1265 - 23 C1267 - 7 C1268 - 5 C1269
        - 11 C1270 - 10 C1271 - 10 C1276 - 5 C1277 - 204 C1278 - 32 C1279
        <= -165
 R1012: - 110 C1041 - 14 C1042 - 60 C1043 - 60 C1044 - 110 C1233 - 60 C1237
        - 14 C1241 + 4 C1255 - 18 C1256 - 30 C1258 - 40 C1259 - 34 C1260
        - 109 C1262 - 10 C1264 - 5 C1265 - 23 C1267 - 7 C1268 - 5 C1269
        - 11 C1270 - 10 C1271 - 10 C1276 - 5 C1277 - 204 C1278 - 32 C1279
        <= -185
 R1014: - 110 C1049 - 14 C1050 - 60 C1051 - 60 C1052 - 110 C1233 - 60 C1237
        - 14 C1239 + 4 C1255 - 18 C1256 - 30 C1258 - 40 C1259 - 34 C1260
        - 109 C1262 - 10 C1264 - 5 C1265 - 23 C1267 - 7 C1268 - 5 C1269
        - 11 C1270 - 10 C1271 - 10 C1272 - 5 C1273 - 150 C1274 - 28 C1275
        <= -189
 R1016: - 110 C1057 - 14 C1058 - 60 C1059 - 60 C1060 - 110 C1233 - 60 C1237
        - 14 C1239 + 4 C1255 - 18 C1256 - 30 C1258 - 40 C1259 - 34 C1260
        - 109 C1262 - 10 C1264 - 5 C1265 - 23 C1267 - 7 C1268 - 5 C1269
        - 11 C1270 - 10 C1271 - 10 C1272 - 5 C1273 - 150 C1274 - 28 C1275
        <= -209
 R1018: - 110 C1065 - 14 C1066 - 60 C1067 - 60 C1068 - 110 C1233 - 60 C1237
        - 14 C1241 + 4 C1255 - 18 C1256 - 30 C1258 - 40 C1259 - 34 C1260
        - 109 C1262 - 10 C1264 - 5 C1265 - 23 C1267 - 7 C1268 - 5 C1269
        - 11 C1270 - 10 C1271 - 10 C1276 - 5 C1277 - 204 C1278 - 32 C1279
        <= -175
 R1020: - 110 C1073 - 14 C1074 - 60 C1075 - 60 C1076 - 110 C1233 - 60 C1237
        - 14 C1241 + 4 C1255 - 18 C1256 - 30 C1258 - 40 C1259 - 34 C1260
        - 109 C1262 - 10 C1264 - 5 C1265 - 23 C1267 - 7 C1268 - 5 C1269
        - 11 C1270 - 10 C1271 - 10 C1276 - 5 C1277 - 204 C1278 - 32 C1279
        <= -195
 R1022: - 110 C1081 - 14 C1082 - 60 C1083 - 60 C1084 - 120 C1085 - 110 C1233
        - 60 C1237 - 14 C1241 - 120 C1243 + 4 C1255 - 18 C1256 - 30 C1258
        - 40 C1259 - 34 C1260 - 109 C1262 - 10 C1264 - 5 C1265 - 23 C1267
        - 7 C1268 - 5 C1269 - 11 C1270 - 10 C1271 - 10 C1276 - 5 C1277
        - 204 C1278 - 32 C1279 - 18 C1280 <= -318
 R1023: - 110 C1086 - 14 C1087 - 60 C1088 - 60 C1089 - 120 C1090 - 110 C1233
        - 60 C1237 - 14 C1241 - 120 C1243 + 4 C1255 - 18 C1256 - 30 C1258
        - 40 C1259 - 34 C1260 - 109 C1262 - 10 C1264 - 5 C1265 - 23 C1267
        - 7 C1268 - 5 C1269 - 11 C1270 - 10 C1271 - 10 C1276 - 5 C1277
        - 204 C1278 - 32 C1279 - 18 C1280 <= -58
 R1024: - 110 C1091 - 14 C1092 - 60 C1093 - 60 C1094 - 120 C1095 - 110 C1233
        - 60 C1237 - 14 C1241 - 120 C1243 + 4 C1255 - 18 C1256 - 30 C1258
        - 40 C1259 - 34 C1260 - 109 C1262 - 10 C1264 - 5 C1265 - 23 C1267
        - 7 C1268 - 5 C1269 - 11 C1270 - 10 C1271 - 10 C1276 - 5 C1277
        - 204 C1278 - 32 C1279 - 18 C1280 <= -338
 R1025: - 110 C1096 - 14 C1097 - 60 C1098 - 60 C1099 - 120 C1100 - 110 C1233
        - 60 C1237 - 14 C1241 - 120 C1243 + 4 C1255 - 18 C1256 - 30 C1258
        - 40 C1259 - 34 C1260 - 109 C1262 - 10 C1264 - 5 C1265 - 23 C1267
        - 7 C1268 - 5 C1269 - 11 C1270 - 10 C1271 - 10 C1276 - 5 C1277
        - 204 C1278 - 32 C1279 - 18 C1280 <= -78
 R1026: - 110 C1101 - 14 C1102 - 60 C1103 - 60 C1104 - 110 C1233 - 60 C1237
        - 14 C1245 + 4 C1255 - 18 C1256 - 30 C1258 - 40 C1259 - 34 C1260
        - 109 C1262 - 10 C1264 - 5 C1265 - 23 C1267 - 7 C1268 - 5 C1269
        - 11 C1270 - 10 C1271 - 10 C1281 - 5 C1282 - 204 C1283 - 32 C1284
        <= -526
 R1027: - 110 C1105 - 14 C1106 - 60 C1107 - 60 C1108 - 110 C1233 - 60 C1237
        - 14 C1245 + 4 C1255 - 18 C1256 - 30 C1258 - 40 C1259 - 34 C1260
        - 109 C1262 - 10 C1264 - 5 C1265 - 23 C1267 - 7 C1268 - 5 C1269
        - 11 C1270 - 10 C1271 - 10 C1281 - 5 C1282 - 204 C1283 - 32 C1284
        <= -246
 R1028: - 110 C1109 - 7 C1110 - 60 C1111 - 60 C1112 - 110 C1233 - 7 C1235
        - 60 C1237 + 4 C1255 - 18 C1256 - 10 C1257 - 30 C1258 - 5 C1261
        - 109 C1262 - 90 C1263 - 10 C1264 - 5 C1265 - 20 C1266 - 23 C1267
        - 7 C1268 - 5 C1269 - 11 C1270 - 10 C1271 - 40 C1285 - 34 C1286
        <= -195
 R1030: - 110 C1117 - 7 C1118 - 60 C1119 - 60 C1120 - 110 C1233 - 7 C1235
        - 60 C1237 + 4 C1255 - 18 C1256 - 10 C1257 - 30 C1258 - 5 C1261
        - 109 C1262 - 90 C1263 - 10 C1264 - 5 C1265 - 20 C1266 - 23 C1267
        - 7 C1268 - 5 C1269 - 11 C1270 - 10 C1271 - 40 C1285 - 34 C1286
        <= -215
 R1032: - 110 C1125 - 14 C1126 - 60 C1127 - 60 C1128 - 110 C1233 - 60 C1237
        - 14 C1239 + 4 C1255 - 18 C1256 - 30 C1258 - 109 C1262 - 10 C1264
        - 5 C1265 - 23 C1267 - 7 C1268 - 5 C1269 - 11 C1270 - 10 C1271
        - 10 C1272 - 5 C1273 - 150 C1274 - 28 C1275 - 40 C1285 - 34 C1286
        <= -152
 R1034: - 110 C1133 - 14 C1134 - 60 C1135 - 60 C1136 - 110 C1233 - 60 C1237
        - 14 C1239 + 4 C1255 - 18 C1256 - 30 C1258 - 109 C1262 - 10 C1264
        - 5 C1265 - 23 C1267 - 7 C1268 - 5 C1269 - 11 C1270 - 10 C1271
        - 10 C1272 - 5 C1273 - 150 C1274 - 28 C1275 - 40 C1285 - 34 C1286
        <= -172
 R1036: - 110 C1141 - 14 C1142 - 60 C1143 - 60 C1144 - 110 C1233 - 60 C1237
        - 14 C1241 + 4 C1255 - 18 C1256 - 30 C1258 - 109 C1262 - 10 C1264
        - 5 C1265 - 23 C1267 - 7 C1268 - 5 C1269 - 11 C1270 - 10 C1271
        - 10 C1276 - 5 C1277 - 204 C1278 - 32 C1279 - 40 C1285 - 34 C1286
        <= -115
 R1037: - 110 C1145 - 14 C1146 - 60 C1147 - 60 C1148 - 110 C1233 - 60 C1237
        - 14 C1241 + 4 C1255 - 18 C1256 - 30 C1258 - 109 C1262 - 10 C1264
        - 5 C1265 - 23 C1267 - 7 C1268 - 5 C1269 - 11 C1270 - 10 C1271
        - 10 C1276 - 5 C1277 - 204 C1278 - 32 C1279 - 40 C1285 - 34 C1286
        <= -135
 R1039: - 110 C1153 - 7 C1154 - 60 C1155 - 60 C1156 - 110 C1233 - 7 C1235
        - 60 C1237 + 4 C1255 - 18 C1256 - 10 C1257 - 30 C1258 - 5 C1261
        - 109 C1262 - 90 C1263 - 10 C1264 - 5 C1265 - 20 C1266 - 23 C1267
        - 7 C1268 - 5 C1269 - 11 C1270 - 10 C1271 - 40 C1285 - 34 C1286
        <= -264
 R1040: - 110 C1157 - 7 C1158 - 60 C1159 - 60 C1160 - 110 C1233 - 7 C1235
        - 60 C1237 + 4 C1255 - 18 C1256 - 10 C1257 - 30 C1258 - 5 C1261
        - 109 C1262 - 90 C1263 - 10 C1264 - 5 C1265 - 20 C1266 - 23 C1267
        - 7 C1268 - 5 C1269 - 11 C1270 - 10 C1271 - 40 C1285 - 34 C1286 <= -4
 R1041: - 110 C1161 - 14 C1162 - 60 C1163 - 60 C1164 - 110 C1233 - 60 C1237
        - 14 C1239 + 4 C1255 - 18 C1256 - 30 C1258 - 109 C1262 - 10 C1264
        - 5 C1265 - 23 C1267 - 7 C1268 - 5 C1269 - 11 C1270 - 10 C1271
        - 10 C1272 - 5 C1273 - 150 C1274 - 28 C1275 - 40 C1285 - 34 C1286
        <= -201
 R1043: - 110 C1169 - 14 C1170 - 60 C1171 - 60 C1172 - 110 C1233 - 60 C1237
        - 14 C1239 + 4 C1255 - 18 C1256 - 30 C1258 - 109 C1262 - 10 C1264
        - 5 C1265 - 23 C1267 - 7 C1268 - 5 C1269 - 11 C1270 - 10 C1271
        - 10 C1272 - 5 C1273 - 150 C1274 - 28 C1275 - 40 C1285 - 34 C1286
        <= -221
 R1045: - 110 C1177 - 14 C1178 - 60 C1179 - 60 C1180 - 110 C1233 - 60 C1237
        - 14 C1241 + 4 C1255 - 18 C1256 - 30 C1258 - 109 C1262 - 10 C1264
        - 5 C1265 - 23 C1267 - 7 C1268 - 5 C1269 - 11 C1270 - 10 C1271
        - 10 C1276 - 5 C1277 - 204 C1278 - 32 C1279 - 40 C1285 - 34 C1286
        <= -164
 R1046: - 110 C1181 - 14 C1182 - 60 C1183 - 60 C1184 - 110 C1233 - 60 C1237
        - 14 C1241 + 4 C1255 - 18 C1256 - 30 C1258 - 109 C1262 - 10 C1264
        - 5 C1265 - 23 C1267 - 7 C1268 - 5 C1269 - 11 C1270 - 10 C1271
        - 10 C1276 - 5 C1277 - 204 C1278 - 32 C1279 - 40 C1285 - 34 C1286
        <= -184
 R1048: - 110 C1189 - 14 C1190 - 60 C1191 - 60 C1192 - 110 C1233 - 60 C1237
        - 14 C1241 + 4 C1255 - 18 C1256 - 30 C1258 - 109 C1262 - 10 C1264
        - 5 C1265 - 23 C1267 - 7 C1268 - 5 C1269 - 11 C1270 - 10 C1271
        - 10 C1276 - 5 C1277 - 204 C1278 - 32 C1279 - 40 C1285 - 34 C1286
        - 18 C1287 <= -231
 R1050: - 110 C1197 - 14 C1198 - 60 C1199 - 60 C1200 - 110 C1233 - 60 C1237
        - 14 C1241 + 4 C1255 - 18 C1256 - 30 C1258 - 109 C1262 - 10 C1264
        - 5 C1265 - 23 C1267 - 7 C1268 - 5 C1269 - 11 C1270 - 10 C1271
        - 10 C1276 - 5 C1277 - 204 C1278 - 32 C1279 - 40 C1285 - 34 C1286
        - 18 C1287 <= -251
 R1052: - 110 C1205 - 14 C1206 - 60 C1207 - 60 C1208 - 110 C1233 - 60 C1237
        - 14 C1245 + 4 C1255 - 18 C1256 - 30 C1258 - 109 C1262 - 10 C1264
        - 5 C1265 - 23 C1267 - 7 C1268 - 5 C1269 - 11 C1270 - 10 C1271
        - 10 C1281 - 5 C1282 - 204 C1283 - 32 C1284 - 40 C1285 - 34 C1286
        <= -439
 R1053: - 110 C1209 - 14 C1210 - 60 C1211 - 60 C1212 - 110 C1233 - 60 C1237
        - 14 C1245 + 4 C1255 - 18 C1256 - 30 C1258 - 109 C1262 - 10 C1264
        - 5 C1265 - 23 C1267 - 7 C1268 - 5 C1269 - 11 C1270 - 10 C1271
        - 10 C1281 - 5 C1282 - 204 C1283 - 32 C1284 - 40 C1285 - 34 C1286
        <= -179
 R1054: - 110 C1213 - 14 C1214 - 60 C1215 - 60 C1216 - 120 C1217 - 110 C1233
        - 60 C1237 - 14 C1241 - 120 C1243 + 4 C1255 - 18 C1256 - 30 C1258
        - 109 C1262 - 10 C1264 - 5 C1265 - 23 C1267 - 7 C1268 - 5 C1269
        - 11 C1270 - 10 C1271 - 10 C1276 - 5 C1277 - 204 C1278 - 32 C1279
        - 40 C1285 - 34 C1286 - 18 C1288 <= -398
 R1055: - 110 C1218 - 14 C1219 - 60 C1220 - 60 C1221 - 120 C1222 - 110 C1233
        - 60 C1237 - 14 C1241 - 120 C1243 + 4 C1255 - 18 C1256 - 30 C1258
        - 109 C1262 - 10 C1264 - 5 C1265 - 23 C1267 - 7 C1268 - 5 C1269
        - 11 C1270 - 10 C1271 - 10 C1276 - 5 C1277 - 204 C1278 - 32 C1279
        - 40 C1285 - 34 C1286 - 18 C1288 <= -138
 R1056: - 110 C1223 - 14 C1224 - 60 C1225 - 60 C1226 - 120 C1227 - 110 C1233
        - 60 C1237 - 14 C1241 - 120 C1243 + 4 C1255 - 18 C1256 - 30 C1258
        - 109 C1262 - 10 C1264 - 5 C1265 - 23 C1267 - 7 C1268 - 5 C1269
        - 11 C1270 - 10 C1271 - 10 C1276 - 5 C1277 - 204 C1278 - 32 C1279
        - 40 C1285 - 34 C1286 - 18 C1288 <= -418
 R1057: - 110 C1228 - 14 C1229 - 60 C1230 - 60 C1231 - 120 C1232 - 110 C1233
        - 60 C1237 - 14 C1241 - 120 C1243 + 4 C1255 - 18 C1256 - 30 C1258
        - 109 C1262 - 10 C1264 - 5 C1265 - 23 C1267 - 7 C1268 - 5 C1269
        - 11 C1270 - 10 C1271 - 10 C1276 - 5 C1277 - 204 C1278 - 32 C1279
        - 40 C1285 - 34 C1286 - 18 C1288 <= -158
 R1066: - C1255 - C1289 <= -1
 R1098: C1001 + C1233 <= 1
 R1099: C1002 + C1235 <= 1
 R1100: C1003 + C1237 <= 1
 R1104: C1009 + C1233 <= 1
 R1105: C1010 + C1235 <= 1
 R1106: C1011 + C1237 <= 1
 R1110: C1017 + C1233 <= 1
 R1111: C1018 + C1239 <= 1
 R1112: C1019 + C1237 <= 1
 R1116: C1025 + C1233 <= 1
 R1117: C1026 + C1239 <= 1
 R1118: C1027 + C1237 <= 1
 R1122: C1033 + C1233 <= 1
 R1123: C1034 + C1241 <= 1
 R1124: C1035 + C1237 <= 1
 R1128: C1041 + C1233 <= 1
 R1129: C1042 + C1241 <= 1
 R1130: C1043 + C1237 <= 1
 R1134: C1049 + C1233 <= 1
 R1135: C1050 + C1239 <= 1
 R1136: C1051 + C1237 <= 1
 R1140: C1057 + C1233 <= 1
 R1141: C1058 + C1239 <= 1
 R1142: C1059 + C1237 <= 1
 R1146: C1065 + C1233 <= 1
 R1147: C1066 + C1241 <= 1
 R1148: C1067 + C1237 <= 1
 R1152: C1073 + C1233 <= 1
 R1153: C1074 + C1241 <= 1
 R1154: C1075 + C1237 <= 1
 R1158: C1081 + C1233 <= 1
 R1159: C1082 + C1241 <= 1
 R1160: C1083 + C1237 <= 1
 R1161: C1085 + C1243 <= 1
 R1162: C1086 + C1233 <= 1
 R1163: C1087 + C1241 <= 1
 R1164: C1088 + C1237 <= 1
 R1165: C1090 + C1243 <= 1
 R1166: C1091 + C1233 <= 1
 R1167: C1092 + C1241 <= 1
 R1168: C1093 + C1237 <= 1
 R1169: C1095 + C1243 <= 1
 R1170: C1096 + C1233 <= 1
 R1171: C1097 + C1241 <= 1
 R1172: C1098 + C1237 <= 1
 R1173: C1100 + C1243 <= 1
 R1174: C1101 + C1233 <= 1
 R1175: C1102 + C1245 <= 1
 R1176: C1103 + C1237 <= 1
 R1177: C1105 + C1233 <= 1
 R1178: C1106 + C1245 <= 1
 R1179: C1107 + C1237 <= 1
 R1180: C1109 + C1233 <= 1
 R1181: C1110 + C1235 <= 1
 R1182: C1111 + C1237 <= 1
 R1186: C1117 + C1233 <= 1
 R1187: C1118 + C1235 <= 1
 R1188: C1119 + C1237 <= 1
 R1192: C1125 + C1233 <= 1
 R1193: C1126 + C1239 <= 1
 R1194: C1127 + C1237 <= 1
 R1198: C1133 + C1233 <= 1
 R1199: C1134 + C1239 <= 1
 R1200: C1135 + C1237 <= 1
 R1204: C1141 + C1233 <= 1
 R1205: C1142 + C1241 <= 1
 R1206: C1143 + C1237 <= 1
 R1207: C1145 + C1233 <= 1
 R1208: C1146 + C1241 <= 1
 R1209: C1147 + C1237 <= 1
 R1213: C1153 + C1233 <= 1
 R1214: C1154 + C1235 <= 1
 R1215: C1155 + C1237 <= 1
 R1216: C1157 + C1233 <= 1
 R1217: C1158 + C1235 <= 1
 R1218: C1159 + C1237 <= 1
 R1219: C1161 + C1233 <= 1
 R1220: C1162 + C1239 <= 1
 R1221: C1163 + C1237 <= 1
 R1225: C1169 + C1233 <= 1
 R1226: C1170 + C1239 <= 1
 R1227: C1171 + C1237 <= 1
 R1231: C1177 + C1233 <= 1
 R1232: C1178 + C1241 <= 1
 R1233: C1179 + C1237 <= 1
 R1234: C1181 + C1233 <= 1
 R1235: C1182 + C1241 <= 1
 R1236: C1183 + C1237 <= 1
 R1240: C1189 + C1233 <= 1
 R1241: C1190 + C1241 <= 1
 R1242: C1191 + C1237 <= 1
 R1246: C1197 + C1233 <= 1
 R1247: C1198 + C1241 <= 1
 R1248: C1199 + C1237 <= 1
 R1252: C1205 + C1233 <= 1
 R1253: C1206 + C1245 <= 1
 R1254: C1207 + C1237 <= 1
 R1255: C1209 + C1233 <= 1
 R1256: C1210 + C1245 <= 1
 R1257: C1211 + C1237 <= 1
 R1258: C1213 + C1233 <= 1
 R1259: C1214 + C1241 <= 1
 R1260: C1215 + C1237 <= 1
 R1261: C1217 + C1243 <= 1
 R1262: C1218 + C1233 <= 1
 R1263: C1219 + C1241 <= 1
 R1264: C1220 + C1237 <= 1
 R1265: C1222 + C1243 <= 1
 R1266: C1223 + C1233 <= 1
 R1267: C1224 + C1241 <= 1
 R1268: C1225 + C1237 <= 1
 R1269: C1227 + C1243 <= 1
 R1270: C1228 + C1233 <= 1
 R1271: C1229 + C1241 <= 1
 R1272: C1230 + C1237 <= 1
 R1273: C1232 + C1243 <= 1
 R1058: C1001 - C1247 <= 0
 R1058: C1009 - C1247 <= 0
 R1058: C1017 - C1247 <= 0
 R1058: C1025 - C1247 <= 0
 R1058: C1033 - C1247 <= 0
 R1058: C1041 - C1247 <= 0
 R1058: C1049 - C1247 <= 0
 R1058: C1057 - C1247 <= 0
 R1058: C1065 - C1247 <= 0
 R1058: C1073 - C1247 <= 0
 R1058: C1081 - C1247 <= 0
 R1058: C1086 - C1247 <= 0
 R1058: C1091 - C1247 <= 0
 R1058: C1096 - C1247 <= 0
 R1058: C1101 - C1247 <= 0
 R1058: C1105 - C1247 <= 0
 R1058: C1109 - C1247 <= 0
 R1058: C1117 - C1247 <= 0
 R1058: C1125 - C1247 <= 0
 R1058: C1133 - C1247 <= 0
 R1058: C1141 - C1247 <= 0
 R1058: C1145 - C1247 <= 0
 R1058: C1153 - C1247 <= 0
 R1058: C1157 - C1247 <= 0
 R1058: C1161 - C1247 <= 0
 R1058: C1169 - C1247 <= 0
 R1058: C1177 - C1247 <= 0
 R1058: C1181 - C1247 <= 0
 R1058: C1189 - C1247 <= 0
 R1058: C1197 - C1247 <= 0
 R1058: C1205 - C1247 <= 0
 R1058: C1209 - C1247 <= 0
 R1058: C1213 - C1247 <= 0
 R1058: C1218 - C1247 <= 0
 R1058: C1223 - C1247 <= 0
 R1058: C1228 - C1247 <= 0
 R1059: C1002 - C1248 <= 0
 R1059: C1010 - C1248 <= 0
 R1059: C1110 - C1248 <= 0
 R1059: C1118 - C1248 <= 0
 R1059: C1154 - C1248 <= 0
 R1059: C1158 - C1248 <= 0
 R1060: C1003 - C1249 <= 0
 R1060: C1011 - C1249 <= 0
 R1060: C1019 - C1249 <= 0
 R1060: C1027 - C1249 <= 0
 R1060: C1035 - C1249 <= 0
 R1060: C1043 - C1249 <= 0
 R1060: C1051 - C1249 <= 0
 R1060: C1059 - C1249 <= 0
 R1060: C1067 - C1249 <= 0
 R1060: C1075 - C1249 <= 0
 R1060: C1083 - C1249 <= 0
 R1060: C1088 - C1249 <= 0
 R1060: C1093 - C1249 <= 0
 R1060: C1098 - C1249 <= 0
 R1060: C1103 - C1249 <= 0
 R1060: C1107 - C1249 <= 0
 R1060: C1111 - C1249 <= 0
 R1060: C1119 - C1249 <= 0
 R1060: C1127 - C1249 <= 0
 R1060: C1135 - C1249 <= 0
 R1060: C1143 - C1249 <= 0
 R1060: C1147 - C1249 <= 0
 R1060: C1155 - C1249 <= 0
 R1060: C1159 - C1249 <= 0
 R1060: C1163 - C1249 <= 0
 R1060: C1171 - C1249 <= 0
 R1060: C1179 - C1249 <= 0
 R1060: C1183 - C1249 <= 0
 R1060: C1191 - C1249 <= 0
 R1060: C1199 - C1249 <= 0
 R1060: C1207 - C1249 <= 0
 R1060: C1211 - C1249 <= 0
 R1060: C1215 - C1249 <= 0
 R1060: C1220 - C1249 <= 0
 R1060: C1225 - C1249 <= 0
 R1060: C1230 - C1249 <= 0
 R1061: C1004 - C1250 <= 0
 R1061: C1012 - C1250 <= 0
 R1061: C1020 - C1250 <= 0
 R1061: C1028 - C1250 <= 0
 R1061: C1036 - C1250 <= 0
 R1061: C1044 - C1250 <= 0
 R1061: C1052 - C1250 <= 0
 R1061: C1060 - C1250 <= 0
 R1061: C1068 - C1250 <= 0
 R1061: C1076 - C1250 <= 0
 R1061: C1084 - C1250 <= 0
 R1061: C1089 - C1250 <= 0
 R1061: C1094 - C1250 <= 0
 R1061: C1099 - C1250 <= 0
 R1061: C1104 - C1250 <= 0
 R1061: C1108 - C1250 <= 0
 R1061: C1112 - C1250 <= 0
 R1061: C1120 - C1250 <= 0
 R1061: C1128 - C1250 <= 0
 R1061: C1136 - C1250 <= 0
 R1061: C1144 - C1250 <= 0
 R1061: C1148 - C1250 <= 0
 R1061: C1156 - C1250 <= 0
 R1061: C1160 - C1250 <= 0
 R1061: C1164 - C1250 <= 0
 R1061: C1172 - C1250 <= 0
 R1061: C1180 - C1250 <= 0
 R1061: C1184 - C1250 <= 0
 R1061: C1192 - C1250 <= 0
 R1061: C1200 - C1250 <= 0
 R1061: C1208 - C1250 <= 0
 R1061: C1212 - C1250 <= 0
 R1061: C1216 - C1250 <= 0
 R1061: C1221 - C1250 <= 0
 R1061: C1226 - C1250 <= 0
 R1061: C1231 - C1250 <= 0
 R1062: C1018 - C1251 <= 0
 R1062: C1026 - C1251 <= 0
 R1062: C1050 - C1251 <= 0
 R1062: C1058 - C1251 <= 0
 R1062: C1126 - C1251 <= 0
 R1062: C1134 - C1251 <= 0
 R1062: C1162 - C1251 <= 0
 R1062: C1170 - C1251 <= 0
 R1063: C1034 - C1252 <= 0
 R1063: C1042 - C1252 <= 0
 R1063: C1066 - C1252 <= 0
 R1063: C1074 - C1252 <= 0
 R1063: C1082 - C1252 <= 0
 R1063: C1087 - C1252 <= 0
 R1063: C1092 - C1252 <= 0
 R1063: C1097 - C1252 <= 0
 R1063: C1142 - C1252 <= 0
 R1063: C1146 - C1252 <= 0
 R1063: C1178 - C1252 <= 0
 R1063: C1182 - C1252 <= 0
 R1063: C1190 - C1252 <= 0
 R1063: C1198 - C1252 <= 0
 R1063: C1214 - C1252 <= 0
 R1063: C1219 - C1252 <= 0
 R1063: C1224 - C1252 <= 0
 R1063: C1229 - C1252 <= 0
 R1064: C1085 - C1253 <= 0
 R1064: C1090 - C1253 <= 0
 R1064: C1095 - C1253 <= 0
 R1064: C1100 - C1253 <= 0
 R1064: C1217 - C1253 <= 0
 R1064: C1222 - C1253 <= 0
 R1064: C1227 - C1253 <= 0
 R1064: C1232 - C1253 <= 0
 R1065: C1102 - C1254 <= 0
 R1065: C1106 - C1254 <= 0
 R1065: C1206 - C1254 <= 0
 R1065: C1210 - C1254 <= 0
Bounds
 0 <= C1001 <= 1
 0 <= C1002 <= 1
 0 <= C1003 <= 1
 0 <= C1004 <= 1
 0 <= C1009 <= 1
 0 <= C1010 <= 1
 0 <= C1011 <= 1
 0 <= C1012 <= 1
 0 <= C1017 <= 1
 0 <= C1018 <= 1
 0 <= C1019 <= 1
 0 <= C1020 <= 1
 0 <= C1025 <= 1
 0 <= C1026 <= 1
 0 <= C1027 <= 1
 0 <= C1028 <= 1
 0 <= C1033 <= 1
 0 <= C1034 <= 1
 0 <= C1035 <= 1
 0 <= C1036 <= 1
 0 <= C1041 <= 1
 0 <= C1042 <= 1
 0 <= C1043 <= 1
 0 <= C1044 <= 1
 0 <= C1049 <= 1
 0 <= C1050 <= 1
 0 <= C1051 <= 1
 0 <= C1052 <= 1
 0 <= C1057 <= 1
 0 <= C1058 <= 1
 0 <= C1059 <= 1
 0 <= C1060 <= 1
 0 <= C1065 <= 1
 0 <= C1066 <= 1
 0 <= C1067 <= 1
 0 <= C1068 <= 1
 0 <= C1073 <= 1
 0 <= C1074 <= 1
 0 <= C1075 <= 1
 0 <= C1076 <= 1
 0 <= C1081 <= 1
 0 <= C1082 <= 1
 0 <= C1083 <= 1
 0 <= C1084 <= 1
 0 <= C1085 <= 1
 0 <= C1086 <= 1
 0 <= C1087 <= 1
 0 <= C1088 <= 1
 0 <= C1089 <= 1
 0 <= C1090 <= 1
 0 <= C1091 <= 1
 0 <= C1092 <= 1
 0 <= C1093 <= 1
 0 <= C1094 <= 1
 0 <= C1095 <= 1
 0 <= C1096 <= 1
 0 <= C1097 <= 1
 0 <= C1098 <= 1
 0 <= C1099 <= 1
 0 <= C1100 <= 1
 0 <= C1101 <= 1
 0 <= C1102 <= 1
 0 <= C1103 <= 1
 0 <= C1104 <= 1
 0 <= C1105 <= 1
 0 <= C1106 <= 1
 0 <= C1107 <= 1
 0 <= C1108 <= 1
 0 <= C1109 <= 1
 0 <= C1110 <= 1
 0 <= C1111 <= 1
 0 <= C1112 <= 1
 0 <= C1117 <= 1
 0 <= C1118 <= 1
 0 <= C1119 <= 1
 0 <= C1120 <= 1
 0 <= C1125 <= 1
 0 <= C1126 <= 1
 0 <= C1127 <= 1
 0 <= C1128 <= 1
 0 <= C1133 <= 1
 0 <= C1134 <= 1
 0 <= C1135 <= 1
 0 <= C1136 <= 1
 0 <= C1141 <= 1
 0 <= C1142 <= 1
 0 <= C1143 <= 1
 0 <= C1144 <= 1
 0 <= C1145 <= 1
 0 <= C1146 <= 1
 0 <= C1147 <= 1
 0 <= C1148 <= 1
 0 <= C1153 <= 1
 0 <= C1154 <= 1
 0 <= C1155 <= 1
 0 <= C1156 <= 1
 0 <= C1157 <= 1
 0 <= C1158 <= 1
 0 <= C1159 <= 1
 0 <= C1160 <= 1
 0 <= C1161 <= 1
 0 <= C1162 <= 1
 0 <= C1163 <= 1
 0 <= C1164 <= 1
 0 <= C1169 <= 1
 0 <= C1170 <= 1
 0 <= C1171 <= 1
 0 <= C1172 <= 1
 0 <= C1177 <= 1
 0 <= C1178 <= 1
 0 <= C1179 <= 1
 0 <= C1180 <= 1
 0 <= C1181 <= 1
 0 <= C1182 <= 1
 0 <= C1183 <= 1
 0 <= C1184 <= 1
 0 <= C1189 <= 1
 0 <= C1190 <= 1
 0 <= C1191 <= 1
 0 <= C1192 <= 1
 0 <= C1197 <= 1
 0 <= C1198 <= 1
 0 <= C1199 <= 1
 0 <= C1200 <= 1
 0 <= C1205 <= 1
 0 <= C1206 <= 1
 0 <= C1207 <= 1
 0 <= C1208 <= 1
 0 <= C1209 <= 1
 0 <= C1210 <= 1
 0 <= C1211 <= 1
 0 <= C1212 <= 1
 0 <= C1213 <= 1
 0 <= C1214 <= 1
 0 <= C1215 <= 1
 0 <= C1216 <= 1
 0 <= C1217 <= 1
 0 <= C1218 <= 1
 0 <= C1219 <= 1
 0 <= C1220 <= 1
 0 <= C1221 <= 1
 0 <= C1222 <= 1
 0 <= C1223 <= 1
 0 <= C1224 <= 1
 0 <= C1225 <= 1
 0 <= C1226 <= 1
 0 <= C1227 <= 1
 0 <= C1228 <= 1
 0 <= C1229 <= 1
 0 <= C1230 <= 1
 0 <= C1231 <= 1
 0 <= C1232 <= 1
 0 <= C1233 <= 1
 0 <= C1235 <= 1
 0 <= C1237 <= 1
 0 <= C1239 <= 1
 0 <= C1241 <= 1
 0 <= C1243 <= 1
 0 <= C1245 <= 1
 0 <= C1247 <= 1
 0 <= C1248 <= 1
 0 <= C1249 <= 1
 0 <= C1250 <= 1
 0 <= C1251 <= 1
 0 <= C1252 <= 1
 0 <= C1253 <= 1
 0 <= C1254 <= 1
 0 <= C1255 <= 1
 0 <= C1256 <= 1
 0 <= C1257 <= 1
 0 <= C1258 <= 1
 0 <= C1259 <= 1
 0 <= C1260 <= 1
 0 <= C1261 <= 1
 0 <= C1262 <= 1
 0 <= C1263 <= 1
 0 <= C1264 <= 1
 0 <= C1265 <= 1
 0 <= C1266 <= 1
 0 <= C1267 <= 1
 0 <= C1268 <= 1
 0 <= C1269 <= 1
 0 <= C1270 <= 1
 0 <= C1271 <= 1
 0 <= C1272 <= 1
 0 <= C1273 <= 1
 0 <= C1274 <= 1
 0 <= C1275 <= 1
 0 <= C1276 <= 1
 0 <= C1277 <= 1
 0 <= C1278 <= 1
 0 <= C1279 <= 1
 0 <= C1280 <= 1
 0 <= C1281 <= 1
 0 <= C1282 <= 1
 0 <= C1283 <= 1
 0 <= C1284 <= 1
 0 <= C1285 <= 1
 0 <= C1286 <= 1
 0 <= C1287 <= 1
 0 <= C1288 <= 1
 0 <= C1289 <= 1
Integers
C1001  C1002  C1003  C1004  C1009  C1010  C1011  C1012  C1017  C1018  C1019  
C1020  C1025  C1026  C1027  C1028  C1033  C1034  C1035  C1036  C1041  C1042  
C1043  C1044  C1049  C1050  C1051  C1052  C1057  C1058  C1059  C1060  C1065  
C1066  C1067  C1068  C1073  C1074  C1075  C1076  C1081  C1082  C1083  C1084  
C1085  C1086  C1087  C1088  C1089  C1090  C1091  C1092  C1093  C1094  C1095  
C1096  C1097  C1098  C1099  C1100  C1101  C1102  C1103  C1104  C1105  C1106  
C1107  C1108  C1109  C1110  C1111  C1112  C1117  C1118  C1119  C1120  C1125  
C1126  C1127  C1128  C1133  C1134  C1135  C1136  C1141  C1142  C1143  C1144  
C1145  C1146  C1147  C1148  C1153  C1154  C1155  C1156  C1157  C1158  C1159  
C1160  C1161  C1162  C1163  C1164  C1169  C1170  C1171  C1172  C1177  C1178  
C1179  C1180  C1181  C1182  C1183  C1184  C1189  C1190  C1191  C1192  C1197  
C1198  C1199  C1200  C1205  C1206  C1207  C1208  C1209  C1210  C1211  C1212  
C1213  C1214  C1215  C1216  C1217  C1218  C1219  C1220  C1221  C1222  C1223  
C1224  C1225  C1226  C1227  C1228  C1229  C1230  C1231  C1232  C1233  C1235  
C1237  C1239  C1241  C1243  C1245  C1247  C1248  C1249  C1250  C1251  C1252  
C1253  C1254  C1255  C1256  C1257  C1258  C1259  C1260  C1261  C1262  C1263  
C1264  C1265  C1266  C1267  C1268  C1269  C1270  C1271  C1272  C1273  C1274  
C1275  C1276  C1277  C1278  C1279  C1280  C1281  C1282  C1283  C1284  C1285  
C1286  C1287  C1288  C1289  
End
